4 4 1 1 111111
15 2 1 3 4 2 2 3 7 4 5 2 2 3 4 3 2 2 2 4 7 1 4 2 1 2 2 2 1 3 3 3 1 1 1 2 1 1 3 3 1 1 7 1 3 3 2 1 6 4 5 2 3 1 4 5 2 3 5 4 7 1 3 6 
15 2 2 3 4 1 2 2 7 3 1 1 1 7 1 3 6 1 3 4 1 1 4 2 1 4 2 6 2 1 4 3 3 2 2 2 3 4 2 1 5 3 7 1 3 1 1 2 7 2 1 1 4 6 2 3 2 4 5 2 1 1 4 3 
15 1 1 5 1 1 5 1 1 2 2 1 4 2 6 1 1 4 1 4 7 2 1 4 3 6 2 1 6 4 1 1 1 1 1 1 7 2 1 5 3 5 2 3 6 4 7 2 3 7 4 2 2 2 3 4 1 1 2 5 
15 2 1 5 4 5 2 1 1 2 5 2 2 4 3 2 1 3 5 2 2 2 3 2 1 3 7 2 3 2 4 2 2 2 6 3 3 2 3 5 4 2 2 1 7 4 4 2 3 1 4 4 2 1 5 4 1 2 1 4 4 4 2 2 4 4 4 1 1 4 
0 3 1 4 7 
1 0 1 2 
1 1 3 5 6 10 
0 3 4 5 7 
2 0 3 2 9 10 
2 2 3 1 9 
1 2 2 12 13 
2 0 3 2 11 13 
0 2 10 14 
2 4 5 1 12 
3 2 4 8 2 11 13 
2 7 10 1 12 
3 6 11 9 0 
3 10 7 6 0 
1 8 0 
0 3 16 18 26 
1 15 3 19 22 24 
0 1 18 
2 15 17 1 19 
2 18 16 2 21 25 
0 2 22 24 
1 19 1 23 
2 16 20 2 23 27 
2 21 22 1 28 
2 16 20 3 25 27 29 
2 19 24 1 28 
1 15 3 27 28 29 
3 26 24 22 0 
3 25 23 26 0 
2 24 26 0 
0 3 33 34 36 
0 2 34 36 
0 2 34 36 
1 30 1 35 
3 32 30 31 2 35 38 
2 33 34 2 40 41 
3 32 31 30 3 37 38 39 
1 36 2 42 43 
2 34 36 1 40 
1 36 1 40 
3 35 39 38 2 42 44 
1 35 2 42 44 
3 40 37 41 0 
1 37 1 44 
3 41 43 40 0 
0 1 53 
0 2 47 53 
1 46 3 48 49 56 
1 47 3 50 51 54 
1 47 1 50 
2 48 49 1 57 
1 48 2 58 59 
0 3 53 54 55 
3 45 52 46 2 56 57 
2 48 52 1 57 
1 52 1 56 
3 47 55 53 2 58 59 
3 54 53 50 2 58 59 
3 57 56 51 0 
3 56 57 51 0 
